NAME          COPTPROB
OBJSENSE
    MAX
ROWS
 N  __OBJ___
 L  R0      
 G  R1      
COLUMNS
    x         __OBJ___  1.2
    x         R0        1.5
    x         R1        0.80000000000000004
    y         __OBJ___  1.8
    y         R0        1.2
    y         R1        0.59999999999999998
    z         __OBJ___  2.1000000000000001
    z         R0        1.8
    z         R1        0.90000000000000002
RHS
    RHS       R0        2.6000000000000001
    RHS       R1        1.2
BOUNDS
 LO BOUND     x         0.10000000000000001
 UP BOUND     x         0.59999999999999998
 LO BOUND     y         0.20000000000000001
 UP BOUND     y         1.5
 LO BOUND     z         0.29999999999999999
 UP BOUND     z         2.7999999999999998
ENDATA
